####################################################################### 
# 
# This file contains crystal structure data downloaded from the 
# Cambridge Structural Database (CSD) hosted by the Cambridge 
# Crystallographic Data Centre (CCDC).
# 
# Full information about CCDC data access policies and citation 
# guidelines are available at http://www.ccdc.cam.ac.uk/access/V1 
# 
# Audit and citation data items may have been added by the CCDC. 
# Please retain this information to preserve the provenance of 
# this file and to allow appropriate attribution of the data. 
# 
#######################################################################

data_ZIF-67,SOD
_audit_block_doi                 10.5517/ccqj9j1
_database_code_depnum_ccdc_archive 'CCDC 671073'
loop_
_citation_id
_citation_doi
_citation_year
1 10.1126/science.1152516 2008
_audit_update_record             
;
2007-12-14 deposited with the CCDC.	2022-05-27 downloaded from the CCDC.
;

_audit_creation_method           SHELXL-97
_chemical_name_systematic        
;
?
;
_chemical_name_common            ZIF-67,SOD
_chemical_melting_point          ?
_chemical_formula_moiety         '3(C8 H10 Co N4), 2(O)'
_chemical_formula_sum            'C24 H30 Co3 N12 O2 '
_chemical_formula_weight         695.39

loop_
_atom_type_symbol
_atom_type_description
_atom_type_scat_dispersion_real
_atom_type_scat_dispersion_imag
_atom_type_scat_source
C C 0.0181 0.0091 'International Tables Vol C Tables 4.2.6.8 and 6.1.1.4'
H H 0.0000 0.0000 'International Tables Vol C Tables 4.2.6.8 and 6.1.1.4'
N N 0.0311 0.0180 'International Tables Vol C Tables 4.2.6.8 and 6.1.1.4'
Co Co -2.3653 3.6143 'International Tables Vol C Tables 4.2.6.8 and 6.1.1.4'
O O 0.0492 0.0322 'International Tables Vol C Tables 4.2.6.8 and 6.1.1.4'

_symmetry_cell_setting           Cubic
_symmetry_space_group_name_H-M   I-43m

loop_
_symmetry_equiv_pos_as_xyz
'x, y, z'
'-x, -y, z'
'-x, y, -z'
'x, -y, -z'
'z, x, y'
'z, -x, -y'
'-z, -x, y'
'-z, x, -y'
'y, z, x'
'-y, z, -x'
'y, -z, -x'
'-y, -z, x'
'y, x, z'
'-y, -x, z'
'y, -x, -z'
'-y, x, -z'
'x, z, y'
'-x, z, -y'
'-x, -z, y'
'x, -z, -y'
'z, y, x'
'z, -y, -x'
'-z, y, -x'
'-z, -y, x'
'x+1/2, y+1/2, z+1/2'
'-x+1/2, -y+1/2, z+1/2'
'-x+1/2, y+1/2, -z+1/2'
'x+1/2, -y+1/2, -z+1/2'
'z+1/2, x+1/2, y+1/2'
'z+1/2, -x+1/2, -y+1/2'
'-z+1/2, -x+1/2, y+1/2'
'-z+1/2, x+1/2, -y+1/2'
'y+1/2, z+1/2, x+1/2'
'-y+1/2, z+1/2, -x+1/2'
'y+1/2, -z+1/2, -x+1/2'
'-y+1/2, -z+1/2, x+1/2'
'y+1/2, x+1/2, z+1/2'
'-y+1/2, -x+1/2, z+1/2'
'y+1/2, -x+1/2, -z+1/2'
'-y+1/2, x+1/2, -z+1/2'
'x+1/2, z+1/2, y+1/2'
'-x+1/2, z+1/2, -y+1/2'
'-x+1/2, -z+1/2, y+1/2'
'x+1/2, -z+1/2, -y+1/2'
'z+1/2, y+1/2, x+1/2'
'z+1/2, -y+1/2, -x+1/2'
'-z+1/2, y+1/2, -x+1/2'
'-z+1/2, -y+1/2, x+1/2'

_cell_length_a                   16.9589(3)
_cell_length_b                   16.9589(3)
_cell_length_c                   16.9589(3)
_cell_angle_alpha                90.00
_cell_angle_beta                 90.00
_cell_angle_gamma                90.00
_cell_volume                     4877.45(15)
_cell_formula_units_Z            4
_cell_measurement_temperature    153(2)
_cell_measurement_reflns_used    6381
_cell_measurement_theta_min      3.69
_cell_measurement_theta_max      44.53

_exptl_crystal_description       cubic
_exptl_crystal_colour            pink
_exptl_crystal_size_max          0.20
_exptl_crystal_size_mid          0.16
_exptl_crystal_size_min          0.12
_exptl_crystal_density_meas      ?
_exptl_crystal_density_diffrn    0.947
_exptl_crystal_density_method    'not measured'
_exptl_crystal_F_000             1420
_exptl_absorpt_coefficient_mu    8.124
_exptl_absorpt_correction_type   multi-scan
_exptl_absorpt_correction_T_min  0.256
_exptl_absorpt_correction_T_max  0.377
_exptl_absorpt_process_details   'Blessing, Acta Cryst. (1995) A51 33-58'

_exptl_special_details           
;
Due to the highly porous nature of this compound
solvent included in the pores was highly disordered
causing a high background which washed out high angle
data. Therefore diffraction was limited toa theta max 45.00.
;

_diffrn_ambient_temperature      153(2)
_diffrn_radiation_wavelength     1.54178
_diffrn_radiation_type           CuK\a
_diffrn_radiation_source         'fine-focus sealed tube'
_diffrn_radiation_monochromator  graphite
_diffrn_measurement_device_type  'CCD area detector'
_diffrn_measurement_method       'phi and omega scans'
_diffrn_detector_area_resol_mean ?
_diffrn_standards_number         ?
_diffrn_standards_interval_count ?
_diffrn_standards_interval_time  ?
_diffrn_standards_decay_%        ?
_diffrn_reflns_number            7062
_diffrn_reflns_av_R_equivalents  0.0437
_diffrn_reflns_av_sigmaI/netI    0.0298
_diffrn_reflns_limit_h_min       -14
_diffrn_reflns_limit_h_max       15
_diffrn_reflns_limit_k_min       -15
_diffrn_reflns_limit_k_max       14
_diffrn_reflns_limit_l_min       -15
_diffrn_reflns_limit_l_max       15
_diffrn_reflns_theta_min         3.69
_diffrn_reflns_theta_max         45.00
_reflns_number_total             399
_reflns_number_gt                381
_reflns_threshold_expression     >2sigma(I)

_computing_data_collection       'Bruker SMART'
_computing_cell_refinement       'Bruker SMART'
_computing_data_reduction        'Bruker SAINT'
_computing_structure_solution    'SHELXS-97 (Sheldrick, 1990)'
_computing_structure_refinement  'SHELXL-97 (Sheldrick, 1997)'
_computing_molecular_graphics    'Bruker SHELXTL'
_computing_publication_material  'Bruker SHELXTL'

_refine_special_details          
;
Refinement of F^2^ against ALL reflections. The weighted R-factor wR and
goodness of fit S are based on F^2^, conventional R-factors R are based
on F, with F set to zero for negative F^2^. The threshold expression of
F^2^ > 2sigma(F^2^) is used only for calculating R-factors(gt) etc. and is
not relevant to the choice of reflections for refinement. R-factors based
on F^2^ are statistically about twice as large as those based on F, and R-
factors based on ALL data will be even larger.
As an open structure, there are many highly disordered solvent molecules
contained within the cavities of the structure. These molecules could not be
resolved from F-maps, therefore residual electron density in these parts of the
structures is modeled as isolated oxygen atoms. Lower data collection
temperatures did not ameloriate the ordering of these molecules and hence
their refinement. As an open structure, there are many highly disordered solvent
molecules contained within the cavities of the structure. These molecules could
not be
resolved from F-maps, therefore residual electron density in these parts of the
structures is modeled as isolated oxygen atoms. Lower data collection
temperatures did not ameloriate the ordering of these molecules and hence
their refinement.
;

_refine_ls_structure_factor_coef Fsqd
_refine_ls_matrix_type           full
_refine_ls_weighting_scheme      calc
_refine_ls_weighting_details     
'calc w=1/[\s^2^(Fo^2^)+(0.1750P)^2^+0.0000P] where P=(Fo^2^+2Fc^2^)/3'
_atom_sites_solution_primary     direct
_atom_sites_solution_secondary   difmap
_atom_sites_solution_hydrogens   geom
_refine_ls_hydrogen_treatment    constr
_refine_ls_extinction_method     none
_refine_ls_extinction_coef       ?
_refine_ls_abs_structure_details 'Flack H D (1983), Acta Cryst. A39, 876-881'
_refine_ls_abs_structure_Flack   0.01(2)
_refine_ls_number_reflns         399
_refine_ls_number_parameters     38
_refine_ls_number_restraints     0
_refine_ls_R_factor_all          0.0740
_refine_ls_R_factor_gt           0.0724
_refine_ls_wR_factor_ref         0.2152
_refine_ls_wR_factor_gt          0.2138
_refine_ls_goodness_of_fit_ref   1.193
_refine_ls_restrained_S_all      1.193
_refine_ls_shift/su_max          0.000
_refine_ls_shift/su_mean         0.000

loop_
_atom_site_label
_atom_site_type_symbol
_atom_site_fract_x
_atom_site_fract_y
_atom_site_fract_z
_atom_site_U_iso_or_equiv
_atom_site_adp_type
_atom_site_occupancy
_atom_site_symmetry_multiplicity
_atom_site_calc_flag
_atom_site_refinement_flags
_atom_site_disorder_assembly
_atom_site_disorder_group
Co1 Co 0.0000 0.5000 0.7500 0.0582(16) Uani 1 4 d S . .
N1 N 0.0902(5) 0.5314(4) 0.8167(5) 0.059(3) Uani 1 1 d . . .
C1 C 0.1234(4) 0.4934(10) 0.8766(4) 0.052(4) Uani 1 2 d S . .
C3 C 0.0943(8) 0.4157(10) 0.9057(8) 0.080(5) Uani 1 2 d S . .
H3A H 0.1300 0.3739 0.8878 0.120 Uiso 0.50 1 calc PR . .
H3B H 0.0413 0.4059 0.8848 0.120 Uiso 0.50 1 calc PR . .
H3C H 0.0925 0.4161 0.9634 0.120 Uiso 0.50 1 calc PR . .
C2 C 0.1327(6) 0.6020(6) 0.8125(7) 0.074(4) Uani 1 1 d . . .
H2 H 0.1234 0.6433 0.7758 0.089 Uiso 1 1 calc R . .
O1W O 0.1881(12) 0.8119(12) 0.8119(12) 0.183(12) Uiso 1 6 d S . .

loop_
_atom_site_aniso_label
_atom_site_aniso_U_11
_atom_site_aniso_U_22
_atom_site_aniso_U_33
_atom_site_aniso_U_23
_atom_site_aniso_U_13
_atom_site_aniso_U_12
Co1 0.0593(17) 0.0593(17) 0.056(2) 0.000 0.000 0.000
N1 0.079(6) 0.041(5) 0.058(5) 0.007(4) -0.001(5) -0.003(4)
C1 0.060(5) 0.036(8) 0.060(5) 0.004(5) 0.006(7) -0.004(5)
C3 0.078(7) 0.085(13) 0.078(7) 0.004(7) -0.002(9) -0.004(7)
C2 0.079(7) 0.064(7) 0.078(8) 0.013(6) -0.011(6) -0.004(6)

_geom_special_details            
;
All esds (except the esd in the dihedral angle between two l.s. planes)
are estimated using the full covariance matrix. The cell esds are taken
into account individually in the estimation of esds in distances, angles
and torsion angles; correlations between esds in cell parameters are only
used when they are defined by crystal symmetry. An approximate (isotropic)
treatment of cell esds is used for estimating esds involving l.s. planes.
;

loop_
_geom_bond_atom_site_label_1
_geom_bond_atom_site_label_2
_geom_bond_distance
_geom_bond_site_symmetry_2
_geom_bond_publ_flag
Co1 N1 1.976(8) . ?
Co1 N1 1.976(8) 40_556 ?
Co1 N1 1.976(8) 39_456 ?
Co1 N1 1.976(8) 2_565 ?
N1 C1 1.329(11) . ?
N1 C2 1.398(13) . ?
C1 N1 1.329(11) 23_656 ?
C1 C3 1.49(2) . ?
C3 H3A 0.9800 . ?
C3 H3B 0.9800 . ?
C3 H3C 0.9800 . ?
C2 C2 1.32(2) 23_656 ?
C2 H2 0.9500 . ?

loop_
_geom_angle_atom_site_label_1
_geom_angle_atom_site_label_2
_geom_angle_atom_site_label_3
_geom_angle
_geom_angle_site_symmetry_1
_geom_angle_site_symmetry_3
_geom_angle_publ_flag
N1 Co1 N1 109.1(2) . 40_556 ?
N1 Co1 N1 109.1(2) . 39_456 ?
N1 Co1 N1 110.2(5) 40_556 39_456 ?
N1 Co1 N1 110.2(5) . 2_565 ?
N1 Co1 N1 109.1(2) 40_556 2_565 ?
N1 Co1 N1 109.1(2) 39_456 2_565 ?
C1 N1 C2 103.7(9) . . ?
C1 N1 Co1 129.4(7) . . ?
C2 N1 Co1 126.9(7) . . ?
N1 C1 N1 114.3(12) 23_656 . ?
N1 C1 C3 122.8(6) 23_656 . ?
N1 C1 C3 122.8(6) . . ?
C1 C3 H3A 109.5 . . ?
C1 C3 H3B 109.5 . . ?
H3A C3 H3B 109.5 . . ?
C1 C3 H3C 109.5 . . ?
H3A C3 H3C 109.5 . . ?
H3B C3 H3C 109.5 . . ?
C2 C2 N1 109.2(6) 23_656 . ?
C2 C2 H2 125.4 23_656 . ?
N1 C2 H2 125.4 . . ?

loop_
_geom_torsion_atom_site_label_1
_geom_torsion_atom_site_label_2
_geom_torsion_atom_site_label_3
_geom_torsion_atom_site_label_4
_geom_torsion
_geom_torsion_site_symmetry_1
_geom_torsion_site_symmetry_2
_geom_torsion_site_symmetry_3
_geom_torsion_site_symmetry_4
_geom_torsion_publ_flag
N1 Co1 N1 C1 170.4(10) 40_556 . . . ?
N1 Co1 N1 C1 -69.2(8) 39_456 . . . ?
N1 Co1 N1 C1 50.6(9) 2_565 . . . ?
N1 Co1 N1 C2 -7.2(8) 40_556 . . . ?
N1 Co1 N1 C2 113.2(10) 39_456 . . . ?
N1 Co1 N1 C2 -127.0(9) 2_565 . . . ?
C2 N1 C1 N1 -1.4(14) . . . 23_656 ?
Co1 N1 C1 N1 -179.5(4) . . . 23_656 ?
C2 N1 C1 C3 177.0(12) . . . . ?
Co1 N1 C1 C3 -1.0(18) . . . . ?
C1 N1 C2 C2 0.8(8) . . . 23_656 ?
Co1 N1 C2 C2 178.9(5) . . . 23_656 ?

_diffrn_measured_fraction_theta_max 1.000
_diffrn_reflns_theta_full        45.00
_diffrn_measured_fraction_theta_full 1.000
_refine_diff_density_max         0.788
_refine_diff_density_min         -0.793
_refine_diff_density_rms         0.134
